p tw 133 150
1 2
2 46
3 14
4 5
5 8
6 7
7 8
8 9
9 10
10 11
11 12
12 13
13 3
14 25
15 16
16 17
17 18
18 19
19 20
19 38
20 21
20 24
21 22
22 23
23 38
24 26
25 36
25 42
26 27
26 32
27 28
28 29
29 30
30 31
31 38
32 33
33 34
34 35
35 37
36 40
37 38
38 39
40 41
41 42
42 43
43 44
44 45
44 15
45 47
46 57
47 48
47 115
48 49
49 50
49 115
50 51
51 52
52 53
53 54
54 55
55 56
56 58
56 61
57 68
58 59
59 60
60 75
61 62
62 63
63 64
63 71
64 65
65 66
66 67
66 71
67 69
68 79
69 70
70 73
71 72
72 73
73 74
74 75
75 76
76 77
77 78
78 80
79 90
80 81
80 83
81 82
82 83
82 3
83 84
84 85
85 86
86 87
87 88
88 89
89 91
90 101
91 92
92 93
92 96
93 94
94 95
95 110
96 97
97 98
98 99
98 106
99 100
100 102
101 112
102 103
102 106
103 104
104 105
105 108
106 107
107 108
108 109
109 110
110 111
111 113
112 123
113 114
114 3
115 116
116 117
117 118
118 119
119 120
120 121
121 122
122 124
122 127
123 3
124 125
125 126
126 10
127 128
128 129
129 130
129 6
130 131
131 132
132 133
132 6
133 4
